<number of tasks>
50

<cycle time>
1000

<order strength>
0.598


<task times>
1 213
2 52
3 28
4 241
5 188
6 267
7 63
8 177
9 135
10 74
11 107
12 127
13 201
14 71
15 454
16 193
17 518
18 174
19 141
20 93
21 476
22 40
23 481
24 222
25 81
26 557
27 40
28 224
29 277
30 40
31 338
32 548
33 247
34 39
35 160
36 126
37 285
38 133
39 320
40 86
41 482
42 126
43 292
44 530
45 118
46 209
47 26
48 279
49 149
50 474

<precedence relations>
1,5
2,6
3,7
4,7
5,8
6,9
7,10
7,11
7,12
7,13
8,14
9,15
10,17
11,18
12,16
12,19
12,20
13,19
13,20
14,21
15,25
16,23
17,26
18,24
19,22
19,25
19,26
19,27
20,25
20,26
20,27
21,29
22,28
23,30
24,30
25,30
25,31
25,32
25,33
26,30
26,31
26,32
26,33
27,30
27,31
27,32
27,33
28,35
29,34
30,35
30,36
30,37
30,38
31,35
31,36
31,37
31,38
32,35
32,36
32,37
32,38
33,35
33,36
33,37
33,38
34,40
35,39
35,40
35,41
36,39
36,40
36,41
37,39
37,40
37,41
38,39
38,40
38,41
39,42
39,43
39,44
40,43
40,46
41,43
41,44
42,45
43,48
43,50
44,46
44,47
44,48
45,49
46,49
46,50
47,50

<end>
